
Gurobi 12.0.3 (win64, Python) logging started Mon Sep 29 21:34:11 2025

Set parameter LogFile to value "gurobi.log"

Gurobi 12.0.3 (win64, Python) logging started Mon Sep 29 21:38:18 2025

Set parameter LogFile to value "gurobi.log"

Gurobi 12.0.3 (win64, Python) logging started Mon Sep 29 21:40:11 2025

Set parameter LogFile to value "gurobi.log"

Gurobi 12.0.3 (win64, Python) logging started Mon Sep 29 21:40:23 2025

Set parameter LogFile to value "gurobi.log"

Gurobi 12.0.3 (win64, Python) logging started Mon Sep 29 21:48:52 2025

Set parameter LogFile to value "gurobi.log"

Gurobi 12.0.3 (win64, Python) logging started Mon Sep 29 21:49:18 2025

Set parameter LogFile to value "gurobi.log"

Gurobi 12.0.3 (win64, Python) logging started Mon Sep 29 21:49:26 2025

Set parameter LogFile to value "gurobi.log"

Gurobi 12.0.3 (win64, Python) logging started Mon Sep 29 21:50:51 2025

Set parameter LogFile to value "gurobi.log"

Gurobi 12.0.3 (win64, Python) logging started Mon Sep 29 21:56:30 2025

Set parameter LogFile to value "gurobi.log"

Gurobi 12.0.3 (win64, Python) logging started Mon Sep 29 21:56:46 2025

Set parameter LogFile to value "gurobi.log"

Gurobi 12.0.3 (win64, Python) logging started Mon Sep 29 21:58:01 2025

Set parameter Username
Set parameter LicenseID to value 2715967
Set parameter LogFile to value "gurobi.log"

Gurobi 12.0.3 (win64, Python) logging started Tue Sep 30 15:09:18 2025

Set parameter Username
Set parameter LicenseID to value 2715967
Set parameter LogFile to value "gurobi.log"

Gurobi 12.0.3 (win64, Python) logging started Fri Oct 24 12:15:49 2025

Set parameter Username
Set parameter LicenseID to value 2715967
Set parameter LogFile to value "gurobi.log"

Gurobi 12.0.3 (win64, Python) logging started Fri Nov 21 09:42:36 2025

Set parameter Username
Set parameter LicenseID to value 2715967
Set parameter LogFile to value "gurobi.log"

Gurobi 12.0.3 (win64, Python) logging started Fri Nov 21 10:15:47 2025

Set parameter Username
Set parameter LicenseID to value 2715967
Set parameter LogFile to value "gurobi.log"

Gurobi 12.0.3 (win64, Python) logging started Fri Nov 21 12:00:36 2025

Set parameter Username
Set parameter LicenseID to value 2715967
Set parameter LogFile to value "gurobi.log"

Gurobi 12.0.3 (win64, Python) logging started Fri Nov 21 12:08:03 2025

Set parameter Username
Set parameter LicenseID to value 2715967
Set parameter LogFile to value "gurobi.log"

Gurobi 12.0.3 (win64, Python) logging started Fri Nov 21 12:09:05 2025

Set parameter Username
Set parameter LicenseID to value 2715967
Set parameter LogFile to value "gurobi.log"

Gurobi 12.0.3 (win64, Python) logging started Fri Nov 21 12:13:44 2025

Set parameter Username
Set parameter LicenseID to value 2715967
Set parameter LogFile to value "gurobi.log"
